
Gurobi 8.1.1 (linux64, Java) logging started Tue Jun  4 10:05:03 2019

Academic license - for non-commercial use only
Optimize a model with 602 rows, 40602 columns and 81403 nonzeros
Variable types: 0 continuous, 40602 integer (40602 binary)
Coefficient statistics:
  Matrix range     [1e+00, 2e+03]
  Objective range  [1e+00, 1e+00]
  Bounds range     [1e+00, 1e+00]
  RHS range        [1e+00, 1e+00]
Presolve time: 0.16s
Presolved: 602 rows, 40602 columns, 81403 nonzeros
Variable types: 0 continuous, 40602 integer (40602 binary)
Found heuristic solution: objective 201.0000000

Root relaxation: objective 6.500000e+01, 1914 iterations, 0.28 seconds

    Nodes    |    Current Node    |     Objective Bounds      |     Work
 Expl Unexpl |  Obj  Depth IntInf | Incumbent    BestBd   Gap | It/Node Time

     0     0   65.00000    0  115  201.00000   65.00000  67.7%     -    1s
H    0     0                      69.0000000   65.00000  5.80%     -    1s
H    0     0                      66.0000000   65.00000  1.52%     -    2s
     0     0   65.00000    0   89   66.00000   65.00000  1.52%     -    3s
     0     0   65.00000    0   86   66.00000   65.00000  1.52%     -    4s
     0     0   65.00000    0  172   66.00000   65.00000  1.52%     -    4s
     0     0   65.00000    0  101   66.00000   65.00000  1.52%     -    4s
     0     0   65.00000    0   87   66.00000   65.00000  1.52%     -    5s
     0     0   65.00000    0  188   66.00000   65.00000  1.52%     -    5s
     0     0   65.00000    0  109   66.00000   65.00000  1.52%     -    5s
     0     2   65.00000    0  103   66.00000   65.00000  1.52%     -    5s
   750   388   65.00000   33  176   66.00000   65.00000  1.52%   146   10s
   861   449   65.00000   27  110   66.00000   65.00000  1.52%   193   15s
  1350   624   65.00000   63   75   66.00000   65.00000  1.52%   185   20s
  2238   704 infeasible  102        66.00000   65.00000  1.52%   171   25s
  3145   884 infeasible  120        66.00000   65.00000  1.52%   158   30s
  3962  1006   65.00000  108   57   66.00000   65.00000  1.52%   151   35s
  5301  1164   65.00000  104   67   66.00000   65.00000  1.52%   136   40s
  6113  1192 infeasible  113        66.00000   65.00000  1.52%   134   45s
  7258  1295   65.00000  121   63   66.00000   65.00000  1.52%   130   51s
  8443  1286   65.00000  115   60   66.00000   65.00000  1.52%   123   55s
 10360  1710   65.00000  134  101   66.00000   65.00000  1.52%   107   60s
 10494  1769   65.00000   36   92   66.00000   65.00000  1.52%   109   66s
 10910  1911   65.00000   79   85   66.00000   65.00000  1.52%   110   71s
 11849  2100 infeasible  129        66.00000   65.00000  1.52%   109   75s
 13167  1950   65.00000  137   57   66.00000   65.00000  1.52%   106   80s
 14175  1715 infeasible  119        66.00000   65.00000  1.52%   104   85s
 15912  1371 infeasible  135        66.00000   65.00000  1.52%   102   90s
 19018  1618   65.00000  144   45   66.00000   65.00000  1.52%  94.3   95s
 20927  1776 infeasible  135        66.00000   65.00000  1.52%  88.9  123s
 21597  1673   65.00000  124   82   66.00000   65.00000  1.52%  90.0  125s
 23086  1791 infeasible  132        66.00000   65.00000  1.52%   101  131s
 24717  2252   65.00000  122   63   66.00000   65.00000  1.52%   108  135s
 27146  3258 infeasible  140        66.00000   65.00000  1.52%   110  140s
 31343  4516   65.00000  142   63   66.00000   65.00000  1.52%   107  145s
 35987  5459 infeasible  156        66.00000   65.00000  1.52%   103  150s
 39893  5807   65.00000  104   82   66.00000   65.00000  1.52%  99.4  155s
 44046  6941 infeasible  150        66.00000   65.00000  1.52%  97.5  160s
 49211  7351   65.00000  142   61   66.00000   65.00000  1.52%  94.5  165s
 52841  8205 infeasible  134        66.00000   65.00000  1.52%  93.0  170s
 55515  8616 infeasible  144        66.00000   65.00000  1.52%  94.5  175s
 57399  8872   65.00000  142   51   66.00000   65.00000  1.52%  96.2  180s
 60241  9223 infeasible  145        66.00000   65.00000  1.52%  97.4  185s
 62381  9325   65.00000  113   67   66.00000   65.00000  1.52%  99.4  190s
 65277  9754   65.00000  140   62   66.00000   65.00000  1.52%   100  195s
 67457 10224   65.00000  131   69   66.00000   65.00000  1.52%   101  200s
 70715 10797 infeasible  118        66.00000   65.00000  1.52%   101  205s
 73466 11323 infeasible  148        66.00000   65.00000  1.52%   102  210s
 75467 11317 infeasible  149        66.00000   65.00000  1.52%   103  215s
 78136 11718 infeasible  135        66.00000   65.00000  1.52%   103  220s
 81184 11837 infeasible  135        66.00000   65.00000  1.52%   104  225s
 84184 13012   65.00000  134   58   66.00000   65.00000  1.52%   104  230s
 87817 13845   65.00000  153   53   66.00000   65.00000  1.52%   103  235s
 91300 14361   65.00000  147   59   66.00000   65.00000  1.52%   102  240s
 94550 14983   65.00000  141   62   66.00000   65.00000  1.52%   102  245s
 98624 15792 infeasible  155        66.00000   65.00000  1.52%   101  250s
 101423 16012 infeasible  152        66.00000   65.00000  1.52%   102  255s
 104807 16298   65.00000  155   66   66.00000   65.00000  1.52%   102  260s
 108016 16430   65.00000  144   64   66.00000   65.00000  1.52%   102  265s
 111598 16692   65.00000  156   45   66.00000   65.00000  1.52%   101  270s
 115242 17198   65.00000  146   60   66.00000   65.00000  1.52%   100  275s
 118981 17688 infeasible  153        66.00000   65.00000  1.52%  99.3  280s
 122742 18084 infeasible  160        66.00000   65.00000  1.52%  98.9  285s
 125554 18385   65.00000  150   58   66.00000   65.00000  1.52%  99.1  290s
 129638 19282   65.00000  160   65   66.00000   65.00000  1.52%  98.4  295s
 133534 19721 infeasible  155        66.00000   65.00000  1.52%  98.3  300s
 136566 20136   65.00000  126   63   66.00000   65.00000  1.52%  98.0  305s
 140774 21237 infeasible  141        66.00000   65.00000  1.52%  97.8  310s
 144555 21923 infeasible  146        66.00000   65.00000  1.52%  97.5  315s
 148101 22633   65.00000  137   63   66.00000   65.00000  1.52%  97.4  320s
 151976 22850   65.00000  146   46   66.00000   65.00000  1.52%  96.9  325s
 155091 23041 infeasible  138        66.00000   65.00000  1.52%  96.7  330s
 158699 23341   65.00000  150   60   66.00000   65.00000  1.52%  96.6  335s
 162794 24085   65.00000  164   77   66.00000   65.00000  1.52%  96.4  340s
 165876 24354   65.00000  120   68   66.00000   65.00000  1.52%  96.5  345s
 169048 24586 infeasible  149        66.00000   65.00000  1.52%  96.2  350s
 172241 24791 infeasible  139        66.00000   65.00000  1.52%  96.4  355s
 176202 25329 infeasible  154        66.00000   65.00000  1.52%  96.2  360s
 179438 25228 infeasible  148        66.00000   65.00000  1.52%  96.1  365s
 183250 25845 infeasible  145        66.00000   65.00000  1.52%  96.1  370s
 186660 26302   65.00000  161   67   66.00000   65.00000  1.52%  95.8  375s
 189828 26630 infeasible  168        66.00000   65.00000  1.52%  95.9  380s
 193003 26920   65.00000  151   69   66.00000   65.00000  1.52%  95.8  385s
 196359 27133 infeasible  157        66.00000   65.00000  1.52%  95.6  390s
 199540 27276 infeasible  144        66.00000   65.00000  1.52%  95.8  395s
 202548 27488   65.00000  137   58   66.00000   65.00000  1.52%  95.7  400s
 205755 27742 infeasible  132        66.00000   65.00000  1.52%  95.6  405s
 209294 28134   65.00000  159   65   66.00000   65.00000  1.52%  95.7  410s
 212678 28522 infeasible  146        66.00000   65.00000  1.52%  95.7  415s
 216022 28914   65.00000  162   67   66.00000   65.00000  1.52%  95.7  420s
 219580 29315 infeasible  154        66.00000   65.00000  1.52%  95.8  425s
 222649 29393 infeasible  147        66.00000   65.00000  1.52%  95.7  430s
 225628 29549   65.00000  137   65   66.00000   65.00000  1.52%  95.8  435s
 229673 30078   65.00000  156   62   66.00000   65.00000  1.52%  95.7  440s
 233605 30342 infeasible  154        66.00000   65.00000  1.52%  95.4  445s
 236856 30294 infeasible  157        66.00000   65.00000  1.52%  95.1  450s
 240116 30376 infeasible  125        66.00000   65.00000  1.52%  95.3  455s
 243685 30531 infeasible  147        66.00000   65.00000  1.52%  95.1  460s
 246394 30701 infeasible  148        66.00000   65.00000  1.52%  95.2  465s
 249238 30864   65.00000  141   62   66.00000   65.00000  1.52%  95.5  470s
 252676 31051 infeasible  143        66.00000   65.00000  1.52%  95.6  475s
 255201 30951 infeasible  129        66.00000   65.00000  1.52%  95.8  480s
 258612 31190 infeasible  154        66.00000   65.00000  1.52%  95.7  485s
 262043 31553 infeasible  154        66.00000   65.00000  1.52%  95.8  490s
 265428 31552 infeasible  181        66.00000   65.00000  1.52%  95.7  495s
 268570 31694 infeasible  152        66.00000   65.00000  1.52%  95.7  500s
 271868 31923   65.00000  150   59   66.00000   65.00000  1.52%  95.5  505s
 274519 32056 infeasible  156        66.00000   65.00000  1.52%  95.7  510s
 277500 32323 infeasible  138        66.00000   65.00000  1.52%  95.9  515s
 280594 32506   65.00000  148   62   66.00000   65.00000  1.52%  96.0  520s
 283949 32756   65.00000  176   68   66.00000   65.00000  1.52%  96.1  525s
 287298 32955 infeasible  137        66.00000   65.00000  1.52%  96.1  530s
 290785 33280 infeasible  155        66.00000   65.00000  1.52%  96.1  535s
 293629 33221   65.00000  161   67   66.00000   65.00000  1.52%  96.2  540s
 297266 33857   65.00000  175   57   66.00000   65.00000  1.52%  96.1  545s
 300379 34077 infeasible  177        66.00000   65.00000  1.52%  96.2  550s
 303368 34562 infeasible  145        66.00000   65.00000  1.52%  96.4  555s
 306746 35350 infeasible  136        66.00000   65.00000  1.52%  96.5  560s
 309628 35572 infeasible  142        66.00000   65.00000  1.52%  96.7  565s
 312584 35678 infeasible  145        66.00000   65.00000  1.52%  96.9  570s
 315739 35833 infeasible  156        66.00000   65.00000  1.52%  96.8  575s
 318807 35944 infeasible  138        66.00000   65.00000  1.52%  96.9  580s
 321833 36055 infeasible  137        66.00000   65.00000  1.52%  97.1  585s
 324725 36261 infeasible  140        66.00000   65.00000  1.52%  97.1  590s
 328605 36716 infeasible  160        66.00000   65.00000  1.52%  96.9  595s
 331625 36800 infeasible  146        66.00000   65.00000  1.52%  96.9  600s

Cutting planes:
  Gomory: 15
  Cover: 82
  Clique: 27
  MIR: 6
  StrongCG: 4
  Flow cover: 9
  Inf proof: 1
  Zero half: 23

Explored 331713 nodes (32155630 simplex iterations) in 600.05 seconds
Thread count was 4 (of 4 available processors)

Solution count 3: 66 69 201 

Time limit reached
Best objective 6.600000000000e+01, best bound 6.500000000000e+01, gap 1.5152%
